100
42 4
36 0
19 0
30 4
1 1
20 4
12 3
14 4
16 0
6 0
9 3
28 4
35 0
31 3
37 4
6 0
20 4
10 4
15 4
43 3
38 0
14 0
18 4
4 4
17 2
29 3
17 0
29 3
31 0
8 2
12 0
24 0
37 4
16 2
37 1
37 4
10 4
41 3
42 1
32 4
6 2
6 1
37 1
40 4
2 0
27 1
2 4
41 4
33 4
2 1
42 0
9 0
1 0
27 4
1 4
34 3
26 0
36 0
44 2
11 0
4 3
33 4
38 4
15 3
5 0
7 0
31 4
9 0
32 0
22 2
41 3
4 4
41 0
23 0
30 0
15 0
14 4
3 0
37 0
42 0
32 0
21 1
13 0
42 0
24 0
10 0
23 2
33 4
16 2
9 3
4 0
26 0
42 4
10 0
1 3
5 3
38 4
18 0
2 3
21 1

